db/data/113482982720506276581307691183252517688.z3.out
sat
-------------------
617.673878194
